(set-logic ALL)
(set-option :produce-models true)
(declare-sort BoundSet 0)
(declare-sort UnboundSet 0)
(set-option :finite-model-find true)
(declare-fun IsUnderFeetOfWater (BoundSet) Bool)
(declare-fun IsWater (BoundSet) Bool)
(declare-fun ShouldJoin (BoundSet BoundSet) Bool)
(assert (not (=> (exists ((a BoundSet)) (exists ((b BoundSet)) (and (IsUnderFeetOfWater a) (IsWater b)))) (exists ((e BoundSet)) (exists ((d BoundSet)) (ShouldJoin d e))))))
(check-sat)
(get-model)